p cnf 161616 96
10202 0
10907 0
11143 0
11247 0
11503 0
11645 0
20205 0
20307 0
20401 0
20743 0
21244 0
21308 0
21648 0
30208 0
30844 0
31002 0
31242 0
31304 0
31443 0
40603 0
40748 0
40801 0
40909 0
41108 0
41407 0
41646 0
50243 0
50506 0
50605 0
50746 0
50908 0
51147 0
51504 0
60204 0
60547 0
61042 0
61248 0
70242 0
70802 0
70943 0
71104 0
71609 0
80308 0
80642 0
80704 0
81303 0
81406 0
81647 0
90142 0
90302 0
90446 0
91005 0
91144 0
91409 0
100147 0
100602 0
100845 0
100946 0
101507 0
110543 0
110705 0
111208 0
111548 0
120248 0
120604 0
120847 0
121001 0
121109 0
121207 0
121546 0
130145 0
130347 0
130643 0
130848 0
130902 0
131004 0
131106 0
140306 0
140448 0
140508 0
140701 0
140942 0
141543 0
150108 0
150403 0
150545 0
151043 0
151306 0
151405 0
151501 0
160146 0
160207 0
160505 0
160647 0
160842 0
161544 0
